70
970
5
11
58
50
22
87
0 1
0 3
0 10
0 13
0 14
0 19
0 20
0 30
0 31
0 36
0 38
0 41
0 43
0 49
0 51
0 52
0 53
0 55
0 56
0 57
0 58
0 59
0 66
0 69
1 3
1 7
1 11
1 13
1 19
1 20
1 28
1 31
1 34
1 41
1 47
1 50
1 52
1 53
1 54
1 56
1 63
1 66
1 68
2 4
2 7
2 9
2 12
2 13
2 15
2 19
2 20
2 25
2 26
2 29
2 30
2 34
2 36
2 37
2 38
2 41
2 44
2 48
2 49
2 52
2 55
2 60
2 61
2 65
2 67
2 68
3 4
3 5
3 6
3 7
3 8
3 9
3 10
3 12
3 13
3 15
3 17
3 22
3 23
3 26
3 27
3 28
3 33
3 36
3 42
3 43
3 44
3 45
3 51
3 52
3 53
3 55
3 57
3 58
3 64
3 65
3 69
4 5
4 6
4 8
4 9
4 15
4 23
4 26
4 27
4 35
4 36
4 37
4 40
4 43
4 44
4 47
4 49
4 51
4 60
4 64
4 67
4 68
4 69
5 6
5 7
5 8
5 10
5 11
5 12
5 13
5 14
5 17
5 18
5 19
5 20
5 22
5 25
5 26
5 28
5 29
5 30
5 31
5 33
5 36
5 42
5 45
5 46
5 48
5 52
5 53
5 54
5 57
5 69
6 12
6 13
6 14
6 17
6 19
6 20
6 22
6 23
6 27
6 32
6 34
6 36
6 39
6 41
6 44
6 46
6 47
6 48
6 49
6 57
6 58
6 59
6 61
6 64
7 8
7 10
7 11
7 13
7 17
7 18
7 20
7 21
7 22
7 27
7 29
7 30
7 32
7 36
7 37
7 38
7 44
7 47
7 50
7 54
7 55
7 58
7 60
7 61
7 62
7 63
7 64
7 65
7 69
8 18
8 21
8 23
8 27
8 28
8 32
8 34
8 35
8 37
8 38
8 39
8 40
8 41
8 44
8 50
8 51
8 57
8 67
9 10
9 11
9 12
9 14
9 15
9 17
9 18
9 26
9 28
9 30
9 32
9 35
9 36
9 39
9 40
9 41
9 42
9 44
9 47
9 49
9 50
9 53
9 59
9 60
9 63
9 66
10 11
10 14
10 15
10 17
10 18
10 19
10 20
10 21
10 22
10 23
10 25
10 28
10 31
10 36
10 37
10 43
10 44
10 48
10 49
10 51
10 53
10 54
10 55
10 57
10 62
10 66
10 67
10 68
11 12
11 21
11 23
11 32
11 35
11 39
11 43
11 47
11 50
11 51
11 52
11 53
11 55
11 57
11 60
11 61
11 62
11 68
12 13
12 14
12 15
12 16
12 17
12 18
12 19
12 24
12 30
12 31
12 32
12 33
12 37
12 38
12 42
12 43
12 45
12 47
12 49
12 50
12 51
12 53
12 54
12 58
12 67
13 14
13 15
13 16
13 18
13 26
13 27
13 30
13 31
13 33
13 35
13 36
13 37
13 38
13 39
13 40
13 43
13 44
13 47
13 53
13 54
13 55
13 57
13 69
14 19
14 21
14 22
14 23
14 27
14 34
14 36
14 37
14 39
14 41
14 42
14 46
14 48
14 50
14 57
14 59
14 60
14 61
14 62
14 68
15 16
15 19
15 21
15 24
15 25
15 27
15 29
15 31
15 35
15 37
15 42
15 45
15 46
15 47
15 48
15 51
15 52
15 53
15 54
15 57
15 59
15 60
15 64
15 66
15 69
16 18
16 22
16 28
16 30
16 33
16 36
16 37
16 44
16 47
16 50
16 52
16 54
16 58
16 62
16 65
16 67
16 68
17 18
17 19
17 21
17 23
17 29
17 30
17 31
17 36
17 37
17 40
17 43
17 46
17 47
17 50
17 51
17 53
17 55
17 59
17 60
17 65
17 66
17 67
18 27
18 29
18 30
18 32
18 35
18 36
18 39
18 42
18 44
18 46
18 49
18 51
18 52
18 53
18 55
18 56
18 57
18 61
18 62
18 64
18 68
18 69
19 21
19 22
19 25
19 26
19 27
19 29
19 32
19 33
19 34
19 39
19 42
19 44
19 52
19 57
20 29
20 31
20 32
20 33
20 35
20 38
20 40
20 42
20 50
20 56
20 57
20 58
20 60
20 63
20 64
20 66
20 67
20 68
20 69
21 22
21 25
21 26
21 30
21 31
21 33
21 34
21 36
21 39
21 41
21 44
21 45
21 48
21 49
21 53
21 56
21 59
21 61
21 62
21 63
21 64
21 65
22 25
22 27
22 28
22 29
22 32
22 37
22 38
22 39
22 40
22 41
22 42
22 43
22 44
22 49
22 53
22 57
22 61
22 63
22 64
22 65
22 68
22 69
23 25
23 26
23 28
23 31
23 32
23 33
23 34
23 36
23 38
23 40
23 46
23 47
23 50
23 52
23 53
23 54
23 55
23 56
23 57
23 58
23 62
23 64
23 66
23 67
23 69
24 29
24 31
24 32
24 34
24 35
24 39
24 48
24 50
24 52
24 55
24 57
24 64
24 65
24 69
25 29
25 30
25 33
25 38
25 39
25 40
25 43
25 44
25 47
25 49
25 50
25 51
25 52
25 55
25 57
25 58
25 60
25 61
25 65
26 27
26 28
26 29
26 31
26 34
26 35
26 39
26 43
26 46
26 47
26 50
26 52
26 53
26 54
26 57
26 58
26 59
26 60
26 61
26 62
26 64
26 65
27 29
27 32
27 37
27 41
27 44
27 46
27 47
27 49
27 51
27 52
27 53
27 55
27 56
27 61
27 62
27 63
27 67
27 68
27 69
28 29
28 30
28 35
28 37
28 38
28 39
28 41
28 45
28 52
28 53
28 61
28 62
28 63
28 64
28 65
28 68
28 69
29 30
29 31
29 48
29 51
29 52
29 54
29 55
29 59
29 60
29 68
29 69
30 31
30 41
30 45
30 47
30 49
30 55
30 56
30 57
30 60
30 62
30 63
30 64
30 66
31 34
31 39
31 43
31 44
31 45
31 46
31 49
31 53
31 54
31 55
31 58
31 59
31 62
31 65
31 67
31 68
32 33
32 34
32 35
32 38
32 43
32 47
32 52
32 54
32 55
32 58
32 59
32 60
32 62
33 35
33 44
33 47
33 54
33 56
33 61
33 64
33 66
34 36
34 37
34 41
34 46
34 48
34 50
34 51
34 52
34 55
34 58
34 60
34 68
35 37
35 45
35 46
35 47
35 48
35 52
35 58
35 60
35 63
35 64
35 65
35 68
36 38
36 42
36 47
36 48
36 52
36 55
36 59
36 60
36 63
36 65
36 66
36 68
36 69
37 38
37 39
37 41
37 42
37 43
37 44
37 45
37 47
37 48
37 52
37 53
37 55
37 56
37 57
37 61
37 65
37 66
38 42
38 44
38 48
38 49
38 52
38 55
38 58
38 60
38 65
38 67
38 68
39 42
39 44
39 46
39 49
39 52
39 55
39 56
39 58
39 59
39 62
39 67
39 68
40 44
40 45
40 46
40 47
40 48
40 51
40 52
40 54
40 56
40 58
40 62
40 65
40 66
40 67
41 42
41 43
41 47
41 49
41 50
41 51
41 53
41 56
41 58
41 59
41 60
41 61
41 64
41 66
41 68
41 69
42 44
42 45
42 50
42 51
42 54
42 55
42 59
42 60
42 61
42 62
42 63
42 64
42 66
42 67
43 46
43 47
43 52
43 53
43 54
43 55
43 57
43 61
43 66
43 67
43 69
44 47
44 52
44 53
44 55
44 56
44 57
44 59
44 62
44 67
45 47
45 49
45 50
45 53
45 54
45 55
45 56
45 59
45 60
45 61
45 63
45 65
46 48
46 49
46 50
46 51
46 52
46 53
46 56
46 57
46 59
46 60
46 65
46 67
46 68
46 69
47 48
47 51
47 58
47 59
47 60
47 61
47 63
47 68
47 69
48 49
48 52
48 58
48 62
48 64
48 65
49 52
49 56
49 60
49 68
49 69
50 51
50 53
50 54
50 56
50 61
50 69
51 57
51 59
51 62
51 63
51 64
51 67
52 53
52 60
52 62
52 66
53 55
53 58
53 61
53 64
53 68
53 69
54 55
54 56
54 57
54 58
54 60
54 61
54 62
54 67
54 68
55 56
55 59
55 62
55 63
55 64
55 66
55 68
55 69
56 57
56 58
56 62
56 64
56 66
56 68
57 59
57 60
57 62
57 66
57 68
58 61
58 66
58 68
58 69
59 60
59 61
59 65
59 68
59 69
60 61
60 64
60 67
60 68
60 69
61 62
61 64
61 65
61 69
62 66
62 67
62 68
62 69
63 64
63 66
64 68
64 69
65 66
67 69
68 69
1 24 60 34 69 32 66 58 50 37 57 43 12 6 3 9 42
54 68 11 47 48 29 7 41 31 62 26 46 18 20 4 59 19
13 30 44 40 23 53 64 45 35 8 63 33 17 52 0 28 15
27 2 65 25 14 55 21 38 39 36 10 56 67 49 5 61 51
22 16
